c Random generated cnf formula, satisfiable: true
p cnf 10 50
-6 8 7 0
-8 2 6 0
3 5 8 0
9 6 -7 0
-7 -2 -8 0
4 -1 10 0
10 -7 -6 0
7 -1 6 0
-5 8 3 0
5 2 3 0
-4 -8 -1 0
-5 1 -9 0
-2 -8 4 0
7 -6 10 0
5 -10 -2 0
10 8 7 0
3 10 7 0
-7 9 1 0
10 -3 9 0
9 10 8 0
8 -1 4 0
-5 -3 -7 0
-2 -5 -4 0
9 -2 8 0
-9 3 2 0
-3 7 5 0
5 2 9 0
-4 2 -3 0
10 -8 3 0
5 9 3 0
-2 9 -6 0
-5 -7 -6 0
7 -1 -9 0
3 1 -10 0
1 -4 5 0
-5 -7 8 0
10 -8 -9 0
-4 2 3 0
7 -4 1 0
-10 7 -9 0
8 2 -1 0
9 -7 10 0
2 10 -3 0
5 -2 3 0
-4 -10 -9 0
7 5 2 0
8 5 7 0
2 -9 1 0
-9 2 -1 0
2 5 1 0
